[1, 2, 242, 243, 244, 241, 240, 239, 238, 231, 246, 245, 237, 236, 235, 234, 233, 232, 230, 251, 250, 247, 249, 248, 279, 3, 280, 278, 252, 253, 208, 209, 210, 207, 206, 205, 204, 203, 202, 201, 200, 199, 198, 197, 196, 195, 194, 192, 191, 190, 189, 188, 187, 185, 184, 183, 182, 181, 180, 179, 178, 177, 176, 151, 152, 156, 153, 154, 155, 121, 120, 119, 157, 158, 159, 160, 175, 161, 162, 163, 164, 165, 166, 171, 172, 170, 169, 168, 167, 103, 104, 105, 106, 107, 173, 174, 114, 115, 116, 86, 113, 87, 88, 112, 111, 110, 108, 109, 89, 90, 91, 92, 102, 101, 100, 99, 98, 93, 94, 95, 96, 97, 78, 79, 80, 81, 82, 83, 84, 85, 65, 66, 67, 70, 71, 72, 73, 74, 76, 75, 77, 63, 62, 118, 61, 60, 43, 42, 41, 40, 39, 37, 38, 36, 35, 34, 33, 32, 31, 30, 125, 124, 123, 122, 48, 53, 54, 55, 56, 45, 46, 47, 49, 52, 51, 50, 57, 58, 59, 44, 68, 69, 64, 117, 145, 144, 193, 186, 146, 147, 142, 143, 148, 141, 140, 138, 139, 149, 150, 269, 270, 134, 135, 136, 268, 267, 137, 266, 265, 264, 263, 262, 260, 261, 259, 258, 257, 256, 255, 254, 222, 221, 218, 219, 220, 217, 216, 215, 212, 213, 214, 211, 227, 229, 228, 226, 224, 223, 225, 271, 16, 15, 14, 13, 12, 11, 10, 8, 7, 9, 133, 18, 17, 19, 20, 21, 128, 130, 131, 132, 129, 127, 126, 29, 28, 27, 26, 22, 25, 23, 24, 5, 4, 277, 276, 275, 274, 273, 272, 6]
[1, 2, 3, 4, 8, 9, 10, 13, 14, 15, 18, 19, 20, 21, 22, 23, 24, 27, 28, 125, 126, 127, 128, 130, 131, 132, 210, 211, 212, 213, 214, 216, 220, 221, 222, 223, 224, 225, 227, 272, 273, 274, 275, 276]
